COLUMNS

passenger_count
pickup_ID
dropoff_ID
request_time_sec
pickup_district
dropoff_district
LDuals
IDuals
vehicle_ID
pick_position
drop_position

REQUESTS_INFO
3      598       627       30034     189       189       195       195       7         1         2         
2      840       272       30066     290       127       137       137       104       1         4         
1      641       641       30060     131       131       167.5     167.5     115       1         2         
4      924       557       29948     290       189       324       324       159       1         2         
2      839       951       29951     290       290       333       333       164       1         2         
1      214       455       30089     207       52        98        98        194       1         2         
1      310       1208      30072     127       192       141       141       215       1         3         
3      197       287       30071     178       299       154       154       234       1         2         
1      482       545       30045     189       52        166       166       240       1         2         
1      374       436       30075     119       100       139       139       245       1         2         
2      485       48        30052     189       98        141       141       296       1         2         
1      442       372       30084     168       119       105       105       300       1         3         
1      924       1054      30015     290       84        257       257       344       1         2         
3      418       466       30044     168       199       161       161       360       1         2         
1      452       554       30066     52        189       129       129       388       1         3         
2      1000      849       30072     291       291       173       173       397       1         3         
1      850       431       30075     291       52        130       130       416       1         3         
1      861       737       30060     290       189       222       222       420       1         2         
3      479       294       30082     52        87        137       137       455       1         2         
1      839       651       30069     290       189       208       208       550       1         3         
3      549       737       30057     52        189       150       150       568       1         3         
1      968       671       30044     290       280       204       204       592       1         4         
2      850       626       30089     291       189       141       141       619       1         2         
1      1003      834       29974     291       290       296       296       620       1         2         
1      726       578       30087     290       189       119       119       641       1         3         
1      474       134       30030     52        9         183       183       650       1         2         
2      926       1218      30045     290       84        230       230       651       1         3         
1      608       551       30084     189       189       122       122       735       1         3         
3      397       463       30031     168       168       151       151       746       1         2         
1      274       580       30083     87        189       96        96        801       1         3         
1      485       533       30066     189       199       125       125       867       1         2         
3      714       389       30037     131       299       180       180       900       1         3         
4      311       512       30063     87        199       147       147       913       1         2         
3      745       675       30070     290       189       149       149       939       1         2         
1      811       771       30065     290       290       147       147       954       1         3         
3      925       600       30082     290       280       200       200       965       1         3         
3      479       294       30082     52        87        137       137       966       1         3         
3      903       795       30009     290       290       272       272       969       1         2         
1      852       602       30071     291       189       101       101       974       1         3         
1      819       939       30066     999       291       227       227       984       1         2         
1      349       415       30078     127       100       145       145       987       1         3         
1      772       624       30074     290       189       134       134       1012      1         3         
1      1012      914       30060     84        291       173       173       1031      1         3         
3      432       22        30077     52        98        172       172       1050      1         2         
1      991       602       30062     290       189       155       155       1070      1         5         
1      483       648       30044     189       189       180       180       1071      1         2         
3      850       959       30084     291       291       146       146       1076      1         2         
2      1068      474       30087     291       52        184       184       1126      1         4         
2      1003      850       30069     291       291       174       174       1175      1         2         
2      1076      994       30057     84        84        142       142       1217      1         2         
1      465       527       30084     199       52        115       115       1231      1         3         
1      757       457       30084     131       52        114       114       1249      1         2         
1      963       970       30026     50        290       144       144       1272      1         4         
4      488       727       30089     199       290       154       154       1315      1         2         
1      619       650       30083     131       189       130.5     130.5     1340      1         3         
1      770       759       30086     290       131       119       119       1354      1         4         
1      644       606       30061     131       189       183       183       1374      1         4         
1      1128      78        30032     291       9         172       172       1417      1         3         
1      936       846       29970     291       291       249       249       1462      1         2         
3      1004      990       30046     291       290       253       253       1568      1         2         
1      811       602       30079     290       189       133       133       1782      1         4         
1      546       641       30083     52        131       111       111       1803      1         3         
3      1026      116       29973     291       9         313       313       1807      1         2         
1      772       864       30068     290       290       116       116       1870      1         2         
1      980       1107      30055     291       291       186       186       1897      1         2         
2      248       353       30081     266       119       118       118       1918      1         3         
1      928       985       29959     290       50        314       314       1922      1         2         
3      326       458       30054     299       52        165       165       1927      1         2         
2      418       466       30044     168       199       161       161       1937      1         2         
1      229       461       30066     266       189       170       170       1949      1         2         
3      1088      749       30040     291       290       196       196       1960      1         2         
1      970       865       30065     290       290       177       177       1983      1         3         
3      742       903       30090     290       290       0         0         0         0         0         
2      742       903       30090     290       290       0         0         0         0         0         
1      350       99        30090     127       286       0         0         0         0         0         
2      1128      694       30090     291       189       0         0         0         0         0         
1      812       628       30091     290       189       0         0         0         0         0         
1      771       606       30091     290       189       0         0         0         0         0         
1      804       693       30092     291       280       0         0         0         0         0         
3      772       512       30092     290       199       0         0         0         0         0         
2      772       512       30092     290       199       0         0         0         0         0         
3      230       670       30092     266       280       0         0         0         0         0         
2      230       670       30092     266       280       0         0         0         0         0         
1      927       1219      30092     290       84        0         0         0         0         0         
1      310       232       30092     127       266       0         0         0         0         0         
1      234       331       30092     87        127       0         0         0         0         0         
1      897       718       30093     291       189       0         0         0         0         0         
1      790       584       30093     290       189       0         0         0         0         0         
3      654       559       30093     189       189       0         0         0         0         0         
3      654       559       30093     189       189       0         0         0         0         0         
1      559       579       30093     189       189       0         0         0         0         0         
1      505       555       30094     52        199       0         0         0         0         0         
1      968       940       30094     290       291       0         0         0         0         0         
1      574       386       30094     189       299       0         0         0         0         0         
3      327       78        30095     299       9         0         0         0         0         0         
2      327       78        30095     299       9         0         0         0         0         0         
1      457       368       30095     52        299       0         0         0         0         0         
1      720       482       30095     290       189       0         0         0         0         0         
1      556       138       30095     199       57        0         0         0         0         0         
1      1149      1149      30095     291       291       0         0         0         0         0         
1      599       232       30095     280       266       0         0         0         0         0         
1      304       189       30096     299       286       0         0         0         0         0         
1      849       599       30096     291       280       0         0         0         0         0         
1      416       739       30096     100       189       0         0         0         0         0         
1      527       416       30096     52        100       0         0         0         0         0         
1      1003      915       30096     291       291       0         0         0         0         0         
1      793       228       30096     290       266       0         0         0         0         0         
1      479       290       30096     52        127       0         0         0         0         0         
1      509       464       30096     199       168       0         0         0         0         0         
1      523       1249      30096     52        129       0         0         0         0         0         
2      44        826       30096     98        291       0         0         0         0         0         
1      1014      905       30097     84        290       0         0         0         0         0         
4      347       116       30097     299       9         0         0         0         0         0         
1      673       604       30097     189       189       0         0         0         0         0         
1      526       192       30097     52        266       0         0         0         0         0         
1      304       213       30097     299       266       0         0         0         0         0         
1      887       992       30097     290       290       0         0         0         0         0         
3      1248      1026      30098     129       291       0         0         0         0         0         
3      1248      1026      30098     129       291       0         0         0         0         0         
1      499       622       30098     52        280       0         0         0         0         0         
1      992       1178      30098     290       84        0         0         0         0         0         
1      926       551       30098     290       189       0         0         0         0         0         
1      768       814       30098     290       290       0         0         0         0         0         
1      675       417       30099     189       100       0         0         0         0         0         
2      354       289       30099     119       127       0         0         0         0         0         
1      317       36        30099     277       98        0         0         0         0         0         
1      460       650       30099     189       189       0         0         0         0         0         
2      633       841       30099     189       290       0         0         0         0         0         
1      328       117       30100     299       286       0         0         0         0         0         
1      287       743       30100     299       290       0         0         0         0         0         
1      838       97        30100     290       9         0         0         0         0         0         
1      603       648       30100     189       189       0         0         0         0         0         
1      505       650       30101     52        189       0         0         0         0         0         
1      532       371       30101     199       52        0         0         0         0         0         
2      434       189       30101     52        286       0         0         0         0         0         
1      551       602       30101     189       189       0         0         0         0         0         
1      521       287       30101     52        299       0         0         0         0         0         
1      649       669       30101     189       280       0         0         0         0         0         
1      35        139       30102     98        57        0         0         0         0         0         
1      137       208       30102     286       286       0         0         0         0         0         
1      47        606       30102     98        189       0         0         0         0         0         
1      35        20        30102     98        98        0         0         0         0         0         
1      508       906       30102     199       290       0         0         0         0         0         
1      313       308       30102     87        127       0         0         0         0         0         
1      549       48        30103     52        98        0         0         0         0         0         
1      459       290       30103     189       127       0         0         0         0         0         
1      1031      723       30103     50        290       0         0         0         0         0         
1      947       738       30103     290       189       0         0         0         0         0         
1      837       604       30103     290       189       0         0         0         0         0         
2      722       628       30104     290       189       0         0         0         0         0         
1      272       368       30104     127       299       0         0         0         0         0         
1      743       902       30104     290       50        0         0         0         0         0         
1      645       960       30104     280       291       0         0         0         0         0         
1      1057      1120      30104     84        84        0         0         0         0         0         
1      643       117       30104     131       286       0         0         0         0         0         
1      621       11        30104     280       999       0         0         0         0         0         
1      748       649       30104     290       189       0         0         0         0         0         
1      737       913       30104     189       291       0         0         0         0         0         
1      35        695       30104     98        189       0         0         0         0         0         
3      882       790       30105     290       290       0         0         0         0         0         
1      395       601       30105     100       189       0         0         0         0         0         
1      452       290       30105     52        127       0         0         0         0         0         
2      801       1021      30105     291       291       0         0         0         0         0         
1      713       534       30105     131       199       0         0         0         0         0         
2      335       377       30105     119       168       0         0         0         0         0         
1      836       652       30105     290       189       0         0         0         0         0         
1      967       654       30105     50        189       0         0         0         0         0         
1      584       557       30105     189       189       0         0         0         0         0         
3      1209      896       30105     192       291       0         0         0         0         0         
3      699       1068      30105     290       291       0         0         0         0         0         
3      699       1068      30105     290       291       0         0         0         0         0         
3      882       790       30105     290       290       0         0         0         0         0         
2      1209      896       30105     192       291       0         0         0         0         0         
1      1065      970       30106     291       290       0         0         0         0         0         
1      509       647       30106     199       280       0         0         0         0         0         
3      575       483       30107     189       189       0         0         0         0         0         
1      863       1002      30107     290       291       0         0         0         0         0         
1      557       696       30107     189       189       0         0         0         0         0         
1      749       675       30107     290       189       0         0         0         0         0         
1      874       699       30107     291       290       0         0         0         0         0         
1      824       696       30108     291       189       0         0         0         0         0         
1      768       442       30108     290       168       0         0         0         0         0         
2      863       928       30108     290       290       0         0         0         0         0         
1      415       354       30108     100       119       0         0         0         0         0         
1      313       258       30108     87        87        0         0         0         0         0         
1      522       602       30108     52        189       0         0         0         0         0         
2      886       231       30108     290       266       0         0         0         0         0         
1      272       481       30109     127       189       0         0         0         0         0         
1      368       277       30109     299       87        0         0         0         0         0         
1      549       601       30109     52        189       0         0         0         0         0         
2      667       117       30109     131       286       0         0         0         0         0         
2      307       368       30110     127       299       0         0         0         0         0         
1      1192      699       30110     129       290       0         0         0         0         0         
1      509       903       30110     199       290       0         0         0         0         0         
2      1044      738       30110     291       189       0         0         0         0         0         
1      556       552       30110     199       189       0         0         0         0         0         
1      688       759       30110     131       131       0         0         0         0         0         
1      737       116       30110     189       9         0         0         0         0         0         
1      529       624       30110     189       189       0         0         0         0         0         
1      662       1032      30111     131       84        0         0         0         0         0         
1      699       653       30111     290       189       0         0         0         0         0         
1      657       1234      30111     999       129       0         0         0         0         0         
1      771       795       30111     290       290       0         0         0         0         0         
3      970       1265      30111     290       192       0         0         0         0         0         
1      171       390       30111     286       52        0         0         0         0         0         
1      601       78        30112     189       9         0         0         0         0         0         
2      983       484       30112     291       189       0         0         0         0         0         
1      269       534       30112     127       199       0         0         0         0         0         
1      812       654       30112     290       189       0         0         0         0         0         
1      118       522       30112     286       52        0         0         0         0         0         
3      838       606       30112     290       189       0         0         0         0         0         
3      838       606       30112     290       189       0         0         0         0         0         
1      662       603       30113     131       189       0         0         0         0         0         
2      937       827       30113     291       291       0         0         0         0         0         
1      737       757       30113     189       131       0         0         0         0         0         
1      816       1251      30113     290       129       0         0         0         0         0         
4      476       22        30114     52        98        0         0         0         0         0         
1      156       416       30114     286       100       0         0         0         0         0         
1      1187      914       30114     291       291       0         0         0         0         0         
1      794       461       30114     290       189       0         0         0         0         0         
2      924       673       30114     290       189       0         0         0         0         0         
1      441       506       30114     168       189       0         0         0         0         0         
3      737       663       30115     189       131       0         0         0         0         0         
1      304       413       30115     299       52        0         0         0         0         0         
1      839       601       30115     290       189       0         0         0         0         0         
1      760       720       30115     291       290       0         0         0         0         0         
1      852       721       30115     291       290       0         0         0         0         0         
2      737       663       30115     189       131       0         0         0         0         0         
1      420       599       30116     168       280       0         0         0         0         0         
1      155       534       30116     286       199       0         0         0         0         0         
1      686       358       30116     131       168       0         0         0         0         0         
1      1045      1217      30116     291       84        0         0         0         0         0         
1      598       438       30116     189       100       0         0         0         0         0         
2      717       716       30117     189       189       0         0         0         0         0         
1      646       372       30117     280       119       0         0         0         0         0         
1      1091      980       30117     291       291       0         0         0         0         0         
1      1086      739       30117     291       189       0         0         0         0         0         
1      791       648       30117     290       189       0         0         0         0         0         
1      609       415       30117     189       100       0         0         0         0         0         
1      743       604       30118     290       189       0         0         0         0         0         
1      790       651       30118     290       189       0         0         0         0         0         
1      692       755       30119     280       131       0         0         0         0         0         
1      768       885       30119     290       290       0         0         0         0         0         
1      713       573       30119     131       189       0         0         0         0         0         
1      311       727       30119     87        290       0         0         0         0         0         
1      463       532       30119     168       199       0         0         0         0         0         
1      691       732       30119     131       131       0         0         0         0         0         
1      768       858       30119     290       290       0         0         0         0         0         
1      308       353       30119     127       119       0         0         0         0         0         
1      749       721       30119     290       290       0         0         0         0         0         
1      488       651       30119     199       189       0         0         0         0         0         
